WARNING: for repeatability, setting FPU to use double precision
============================[ Problem Statistics ]=============================
|                                                                             |
|  Number of variables:           100                                         |
|  Number of clauses:             449                                         |
|  Parse time:                   0.00 s                                       |
|  Eliminated clauses:           0.00 Mb                                      |
|  Simplification time:          0.00 s                                       |
|                                                                             |
============================[ Search Statistics ]==============================
| Conflicts |          ORIGINAL         |          LEARNT          | Progress |
|           |    Vars  Clauses Literals |    Limit  Clauses Lit/Cl |          |
===============================================================================
|       100 |      95      434     1321 |      159      100      8 |  0.010 % |
===============================================================================
restarts              : 2
conflicts             : 197            (80639 /sec)
decisions             : 250            (0.00 % random) (102333 /sec)
propagations          : 4701           (1924273 /sec)
conflict literals     : 1482           (16.60 % deleted)
Memory used           : 13.00 MB
CPU time              : 0.002443 s

SATISFIABLE
